Set parameter Username
Academic license - for non-commercial use only - expires 2023-12-01
Set parameter Username
Academic license - for non-commercial use only - expires 2023-12-01
Set parameter Username
Academic license - for non-commercial use only - expires 2023-12-01
Set parameter TimeLimit to value 3600
Set parameter MIPGap to value 1e-06
Set parameter Threads to value 1
Gurobi Optimizer version 9.5.2 build v9.5.2rc0 (linux64)
Thread count: 4 physical cores, 8 logical processors, using up to 1 threads
Optimize a model with 208 rows, 312 columns and 570 nonzeros
Model fingerprint: 0x4092586d
Coefficient statistics:
  Matrix range     [1e+00, 5e+03]
  Objective range  [8e-01, 5e+02]
  Bounds range     [1e+00, 1e+00]
  RHS range        [2e+01, 1e+02]
Presolve removed 105 rows and 105 columns
Presolve time: 0.00s
Presolved: 103 rows, 207 columns, 360 nonzeros

Iteration    Objective       Primal Inf.    Dual Inf.      Time
       0    2.2008460e+01   2.051126e+02   0.000000e+00      0s
     109    2.4740019e+03   0.000000e+00   0.000000e+00      0s

Solved in 109 iterations and 0.00 seconds (0.00 work units)
Optimal objective  2.474001914e+03
Obj: 2474
